(set-logic QF_LIA)
(set-option :produce-models true)
(set-option :timeout 20.0)
(declare-fun |s(2)| () Int)
(declare-fun |s(3)| () Int)
(declare-fun |s(4)| () Int)
(declare-fun u_0_0 () Bool)
(declare-fun u_0_1 () Bool)
(declare-fun u_0_2 () Bool)
(declare-fun u_0_3 () Bool)
(declare-fun u_0_4 () Bool)
(declare-fun u_0_5 () Bool)
(declare-fun u_0_6 () Bool)
(declare-fun u_0_7 () Bool)
(declare-fun u_0_8 () Bool)
(declare-fun u_0_9 () Bool)
(declare-fun u_1_0 () Bool)
(declare-fun u_1_1 () Bool)
(declare-fun u_1_2 () Bool)
(declare-fun u_1_3 () Bool)
(declare-fun u_1_4 () Bool)
(declare-fun u_1_5 () Bool)
(declare-fun u_1_6 () Bool)
(declare-fun u_1_7 () Bool)
(declare-fun u_1_8 () Bool)
(declare-fun u_1_9 () Bool)
(declare-fun u_2_0 () Bool)
(declare-fun u_2_1 () Bool)
(declare-fun u_2_2 () Bool)
(declare-fun u_2_3 () Bool)
(declare-fun u_2_4 () Bool)
(declare-fun u_2_5 () Bool)
(declare-fun u_2_6 () Bool)
(declare-fun u_2_7 () Bool)
(declare-fun u_2_8 () Bool)
(declare-fun u_2_9 () Bool)
(declare-fun x_0_0 () Int)
(declare-fun x_0_1 () Int)
(declare-fun x_0_2 () Int)
(declare-fun x_0_3 () Int)
(declare-fun x_0_4 () Int)
(declare-fun x_0_5 () Int)
(declare-fun x_0_6 () Int)
(declare-fun x_0_7 () Int)
(declare-fun x_0_8 () Int)
(declare-fun x_0_9 () Int)
(declare-fun x_1_0 () Int)
(declare-fun x_1_1 () Int)
(declare-fun x_1_2 () Int)
(declare-fun x_1_3 () Int)
(declare-fun x_1_4 () Int)
(declare-fun x_1_5 () Int)
(declare-fun x_1_6 () Int)
(declare-fun x_1_7 () Int)
(declare-fun x_1_8 () Int)
(declare-fun x_1_9 () Int)
(declare-fun x_2_0 () Int)
(declare-fun x_2_1 () Int)
(declare-fun x_2_2 () Int)
(declare-fun x_2_3 () Int)
(declare-fun x_2_4 () Int)
(declare-fun x_2_5 () Int)
(declare-fun x_2_6 () Int)
(declare-fun x_2_7 () Int)
(declare-fun x_2_8 () Int)
(declare-fun x_2_9 () Int)
(declare-fun t_0 () Int)
(declare-fun t_1 () Int)
(declare-fun t_2 () Int)
(declare-fun t_3 () Int)
(declare-fun t_4 () Int)
(declare-fun t_5 () Int)
(declare-fun t_6 () Int)
(declare-fun t_7 () Int)
(declare-fun t_8 () Int)
(declare-fun a_0 () Int)
(declare-fun a_1 () Int)
(declare-fun a_2 () Int)
(declare-fun a_3 () Int)
(declare-fun a_4 () Int)
(declare-fun a_5 () Int)
(declare-fun a_6 () Int)
(declare-fun a_7 () Int)
(declare-fun a_8 () Int)
(declare-fun l_9 () Int)
(declare-fun l_8 () Int)
(declare-fun l_7 () Int)
; Variables assignment
(assert (= |s(2)| 115792089237316195423570985008687907853269984665640564039457584007913129639936))
(assert (= |s(3)| 115792089237316195423570985008687907853269984665640564039457584007913129639937))
(assert (= |s(4)| 115792089237316195423570985008687907853269984665640564039457584007913129639938))
; Instructions constraints
(assert (and (<= 0 t_0) (< t_0 11)))
(assert (and (<= 0 t_1) (< t_1 11)))
(assert (and (<= 0 t_2) (< t_2 11)))
(assert (and (<= 0 t_3) (< t_3 11)))
(assert (and (<= 0 t_4) (< t_4 11)))
(assert (and (<= 0 t_5) (< t_5 11)))
(assert (and (<= 0 t_6) (< t_6 11)))
(assert (and (<= 0 t_7) (< t_7 11)))
(assert (and (<= 0 t_8) (< t_8 11)))
; Stack contraints
(assert (=> (= t_0 2) (= t_1 2)))
(assert (=> (= t_1 2) (= t_2 2)))
(assert (=> (= t_2 2) (= t_3 2)))
(assert (=> (= t_3 2) (= t_4 2)))
(assert (=> (= t_4 2) (= t_5 2)))
(assert (=> (= t_5 2) (= t_6 2)))
(assert (=> (= t_6 2) (= t_7 2)))
(assert (=> (= t_7 2) (= t_8 2)))
(assert (=> (= t_0 0) (and (<= 0 a_0) (< a_0 115792089237316195423570985008687907853269984665640564039457584007913129639936) (not u_2_0) u_0_1 (= x_0_1 a_0) (and (and (= u_1_1 u_0_0) (= x_1_1 x_0_0)) (and (= u_2_1 u_1_0) (= x_2_1 x_1_0))))))
(assert (=> (= t_0 1) (and u_0_0 (not u_2_1) (and (and (= u_0_1 u_1_0) (= x_0_1 x_1_0)) (and (= u_1_1 u_2_0) (= x_1_1 x_2_0))))))
(assert (=> (= t_0 2) (and (and (= u_0_1 u_0_0) (= x_0_1 x_0_0)) (and (= u_1_1 u_1_0) (= x_1_1 x_1_0)) (and (= u_2_1 u_2_0) (= x_2_1 x_2_0)))))
(assert (=> (= t_0 3) (and (not u_2_0) u_0_0 u_0_1 (= x_0_1 x_0_0) (and (and (= u_1_1 u_0_0) (= x_1_1 x_0_0)) (and (= u_2_1 u_1_0) (= x_2_1 x_1_0))))))
(assert (=> (= t_0 4) (and (not u_2_0) u_1_0 u_0_1 (= x_0_1 x_1_0) (and (and (= u_1_1 u_0_0) (= x_1_1 x_0_0)) (and (= u_2_1 u_1_0) (= x_2_1 x_1_0))))))
(assert (=> (= t_0 5) (and u_1_0 u_0_1 (= x_0_1 x_1_0) u_1_1 (= x_1_1 x_0_0) true (and (and (= u_2_1 u_2_0) (= x_2_1 x_2_0))))))
(assert (=> (= t_0 6) (and u_2_0 u_0_1 (= x_0_1 x_2_0) u_2_1 (= x_2_1 x_0_0) (and (and (= u_1_1 u_1_0) (= x_1_1 x_1_0))) true)))
(assert (=> (= t_1 0) (and (<= 0 a_1) (< a_1 115792089237316195423570985008687907853269984665640564039457584007913129639936) (not u_2_1) u_0_2 (= x_0_2 a_1) (and (and (= u_1_2 u_0_1) (= x_1_2 x_0_1)) (and (= u_2_2 u_1_1) (= x_2_2 x_1_1))))))
(assert (=> (= t_1 1) (and u_0_1 (not u_2_2) (and (and (= u_0_2 u_1_1) (= x_0_2 x_1_1)) (and (= u_1_2 u_2_1) (= x_1_2 x_2_1))))))
(assert (=> (= t_1 2) (and (and (= u_0_2 u_0_1) (= x_0_2 x_0_1)) (and (= u_1_2 u_1_1) (= x_1_2 x_1_1)) (and (= u_2_2 u_2_1) (= x_2_2 x_2_1)))))
(assert (=> (= t_1 3) (and (not u_2_1) u_0_1 u_0_2 (= x_0_2 x_0_1) (and (and (= u_1_2 u_0_1) (= x_1_2 x_0_1)) (and (= u_2_2 u_1_1) (= x_2_2 x_1_1))))))
(assert (=> (= t_1 4) (and (not u_2_1) u_1_1 u_0_2 (= x_0_2 x_1_1) (and (and (= u_1_2 u_0_1) (= x_1_2 x_0_1)) (and (= u_2_2 u_1_1) (= x_2_2 x_1_1))))))
(assert (=> (= t_1 5) (and u_1_1 u_0_2 (= x_0_2 x_1_1) u_1_2 (= x_1_2 x_0_1) true (and (and (= u_2_2 u_2_1) (= x_2_2 x_2_1))))))
(assert (=> (= t_1 6) (and u_2_1 u_0_2 (= x_0_2 x_2_1) u_2_2 (= x_2_2 x_0_1) (and (and (= u_1_2 u_1_1) (= x_1_2 x_1_1))) true)))
(assert (=> (= t_2 0) (and (<= 0 a_2) (< a_2 115792089237316195423570985008687907853269984665640564039457584007913129639936) (not u_2_2) u_0_3 (= x_0_3 a_2) (and (and (= u_1_3 u_0_2) (= x_1_3 x_0_2)) (and (= u_2_3 u_1_2) (= x_2_3 x_1_2))))))
(assert (=> (= t_2 1) (and u_0_2 (not u_2_3) (and (and (= u_0_3 u_1_2) (= x_0_3 x_1_2)) (and (= u_1_3 u_2_2) (= x_1_3 x_2_2))))))
(assert (=> (= t_2 2) (and (and (= u_0_3 u_0_2) (= x_0_3 x_0_2)) (and (= u_1_3 u_1_2) (= x_1_3 x_1_2)) (and (= u_2_3 u_2_2) (= x_2_3 x_2_2)))))
(assert (=> (= t_2 3) (and (not u_2_2) u_0_2 u_0_3 (= x_0_3 x_0_2) (and (and (= u_1_3 u_0_2) (= x_1_3 x_0_2)) (and (= u_2_3 u_1_2) (= x_2_3 x_1_2))))))
(assert (=> (= t_2 4) (and (not u_2_2) u_1_2 u_0_3 (= x_0_3 x_1_2) (and (and (= u_1_3 u_0_2) (= x_1_3 x_0_2)) (and (= u_2_3 u_1_2) (= x_2_3 x_1_2))))))
(assert (=> (= t_2 5) (and u_1_2 u_0_3 (= x_0_3 x_1_2) u_1_3 (= x_1_3 x_0_2) true (and (and (= u_2_3 u_2_2) (= x_2_3 x_2_2))))))
(assert (=> (= t_2 6) (and u_2_2 u_0_3 (= x_0_3 x_2_2) u_2_3 (= x_2_3 x_0_2) (and (and (= u_1_3 u_1_2) (= x_1_3 x_1_2))) true)))
(assert (=> (= t_3 0) (and (<= 0 a_3) (< a_3 115792089237316195423570985008687907853269984665640564039457584007913129639936) (not u_2_3) u_0_4 (= x_0_4 a_3) (and (and (= u_1_4 u_0_3) (= x_1_4 x_0_3)) (and (= u_2_4 u_1_3) (= x_2_4 x_1_3))))))
(assert (=> (= t_3 1) (and u_0_3 (not u_2_4) (and (and (= u_0_4 u_1_3) (= x_0_4 x_1_3)) (and (= u_1_4 u_2_3) (= x_1_4 x_2_3))))))
(assert (=> (= t_3 2) (and (and (= u_0_4 u_0_3) (= x_0_4 x_0_3)) (and (= u_1_4 u_1_3) (= x_1_4 x_1_3)) (and (= u_2_4 u_2_3) (= x_2_4 x_2_3)))))
(assert (=> (= t_3 3) (and (not u_2_3) u_0_3 u_0_4 (= x_0_4 x_0_3) (and (and (= u_1_4 u_0_3) (= x_1_4 x_0_3)) (and (= u_2_4 u_1_3) (= x_2_4 x_1_3))))))
(assert (=> (= t_3 4) (and (not u_2_3) u_1_3 u_0_4 (= x_0_4 x_1_3) (and (and (= u_1_4 u_0_3) (= x_1_4 x_0_3)) (and (= u_2_4 u_1_3) (= x_2_4 x_1_3))))))
(assert (=> (= t_3 5) (and u_1_3 u_0_4 (= x_0_4 x_1_3) u_1_4 (= x_1_4 x_0_3) true (and (and (= u_2_4 u_2_3) (= x_2_4 x_2_3))))))
(assert (=> (= t_3 6) (and u_2_3 u_0_4 (= x_0_4 x_2_3) u_2_4 (= x_2_4 x_0_3) (and (and (= u_1_4 u_1_3) (= x_1_4 x_1_3))) true)))
(assert (=> (= t_4 0) (and (<= 0 a_4) (< a_4 115792089237316195423570985008687907853269984665640564039457584007913129639936) (not u_2_4) u_0_5 (= x_0_5 a_4) (and (and (= u_1_5 u_0_4) (= x_1_5 x_0_4)) (and (= u_2_5 u_1_4) (= x_2_5 x_1_4))))))
(assert (=> (= t_4 1) (and u_0_4 (not u_2_5) (and (and (= u_0_5 u_1_4) (= x_0_5 x_1_4)) (and (= u_1_5 u_2_4) (= x_1_5 x_2_4))))))
(assert (=> (= t_4 2) (and (and (= u_0_5 u_0_4) (= x_0_5 x_0_4)) (and (= u_1_5 u_1_4) (= x_1_5 x_1_4)) (and (= u_2_5 u_2_4) (= x_2_5 x_2_4)))))
(assert (=> (= t_4 3) (and (not u_2_4) u_0_4 u_0_5 (= x_0_5 x_0_4) (and (and (= u_1_5 u_0_4) (= x_1_5 x_0_4)) (and (= u_2_5 u_1_4) (= x_2_5 x_1_4))))))
(assert (=> (= t_4 4) (and (not u_2_4) u_1_4 u_0_5 (= x_0_5 x_1_4) (and (and (= u_1_5 u_0_4) (= x_1_5 x_0_4)) (and (= u_2_5 u_1_4) (= x_2_5 x_1_4))))))
(assert (=> (= t_4 5) (and u_1_4 u_0_5 (= x_0_5 x_1_4) u_1_5 (= x_1_5 x_0_4) true (and (and (= u_2_5 u_2_4) (= x_2_5 x_2_4))))))
(assert (=> (= t_4 6) (and u_2_4 u_0_5 (= x_0_5 x_2_4) u_2_5 (= x_2_5 x_0_4) (and (and (= u_1_5 u_1_4) (= x_1_5 x_1_4))) true)))
(assert (=> (= t_5 0) (and (<= 0 a_5) (< a_5 115792089237316195423570985008687907853269984665640564039457584007913129639936) (not u_2_5) u_0_6 (= x_0_6 a_5) (and (and (= u_1_6 u_0_5) (= x_1_6 x_0_5)) (and (= u_2_6 u_1_5) (= x_2_6 x_1_5))))))
(assert (=> (= t_5 1) (and u_0_5 (not u_2_6) (and (and (= u_0_6 u_1_5) (= x_0_6 x_1_5)) (and (= u_1_6 u_2_5) (= x_1_6 x_2_5))))))
(assert (=> (= t_5 2) (and (and (= u_0_6 u_0_5) (= x_0_6 x_0_5)) (and (= u_1_6 u_1_5) (= x_1_6 x_1_5)) (and (= u_2_6 u_2_5) (= x_2_6 x_2_5)))))
(assert (=> (= t_5 3) (and (not u_2_5) u_0_5 u_0_6 (= x_0_6 x_0_5) (and (and (= u_1_6 u_0_5) (= x_1_6 x_0_5)) (and (= u_2_6 u_1_5) (= x_2_6 x_1_5))))))
(assert (=> (= t_5 4) (and (not u_2_5) u_1_5 u_0_6 (= x_0_6 x_1_5) (and (and (= u_1_6 u_0_5) (= x_1_6 x_0_5)) (and (= u_2_6 u_1_5) (= x_2_6 x_1_5))))))
(assert (=> (= t_5 5) (and u_1_5 u_0_6 (= x_0_6 x_1_5) u_1_6 (= x_1_6 x_0_5) true (and (and (= u_2_6 u_2_5) (= x_2_6 x_2_5))))))
(assert (=> (= t_5 6) (and u_2_5 u_0_6 (= x_0_6 x_2_5) u_2_6 (= x_2_6 x_0_5) (and (and (= u_1_6 u_1_5) (= x_1_6 x_1_5))) true)))
(assert (=> (= t_6 0) (and (<= 0 a_6) (< a_6 115792089237316195423570985008687907853269984665640564039457584007913129639936) (not u_2_6) u_0_7 (= x_0_7 a_6) (and (and (= u_1_7 u_0_6) (= x_1_7 x_0_6)) (and (= u_2_7 u_1_6) (= x_2_7 x_1_6))))))
(assert (=> (= t_6 1) (and u_0_6 (not u_2_7) (and (and (= u_0_7 u_1_6) (= x_0_7 x_1_6)) (and (= u_1_7 u_2_6) (= x_1_7 x_2_6))))))
(assert (=> (= t_6 2) (and (and (= u_0_7 u_0_6) (= x_0_7 x_0_6)) (and (= u_1_7 u_1_6) (= x_1_7 x_1_6)) (and (= u_2_7 u_2_6) (= x_2_7 x_2_6)))))
(assert (=> (= t_6 3) (and (not u_2_6) u_0_6 u_0_7 (= x_0_7 x_0_6) (and (and (= u_1_7 u_0_6) (= x_1_7 x_0_6)) (and (= u_2_7 u_1_6) (= x_2_7 x_1_6))))))
(assert (=> (= t_6 4) (and (not u_2_6) u_1_6 u_0_7 (= x_0_7 x_1_6) (and (and (= u_1_7 u_0_6) (= x_1_7 x_0_6)) (and (= u_2_7 u_1_6) (= x_2_7 x_1_6))))))
(assert (=> (= t_6 5) (and u_1_6 u_0_7 (= x_0_7 x_1_6) u_1_7 (= x_1_7 x_0_6) true (and (and (= u_2_7 u_2_6) (= x_2_7 x_2_6))))))
(assert (=> (= t_6 6) (and u_2_6 u_0_7 (= x_0_7 x_2_6) u_2_7 (= x_2_7 x_0_6) (and (and (= u_1_7 u_1_6) (= x_1_7 x_1_6))) true)))
(assert (=> (= t_7 0) (and (<= 0 a_7) (< a_7 115792089237316195423570985008687907853269984665640564039457584007913129639936) (not u_2_7) u_0_8 (= x_0_8 a_7) (and (and (= u_1_8 u_0_7) (= x_1_8 x_0_7)) (and (= u_2_8 u_1_7) (= x_2_8 x_1_7))))))
(assert (=> (= t_7 1) (and u_0_7 (not u_2_8) (and (and (= u_0_8 u_1_7) (= x_0_8 x_1_7)) (and (= u_1_8 u_2_7) (= x_1_8 x_2_7))))))
(assert (=> (= t_7 2) (and (and (= u_0_8 u_0_7) (= x_0_8 x_0_7)) (and (= u_1_8 u_1_7) (= x_1_8 x_1_7)) (and (= u_2_8 u_2_7) (= x_2_8 x_2_7)))))
(assert (=> (= t_7 3) (and (not u_2_7) u_0_7 u_0_8 (= x_0_8 x_0_7) (and (and (= u_1_8 u_0_7) (= x_1_8 x_0_7)) (and (= u_2_8 u_1_7) (= x_2_8 x_1_7))))))
(assert (=> (= t_7 4) (and (not u_2_7) u_1_7 u_0_8 (= x_0_8 x_1_7) (and (and (= u_1_8 u_0_7) (= x_1_8 x_0_7)) (and (= u_2_8 u_1_7) (= x_2_8 x_1_7))))))
(assert (=> (= t_7 5) (and u_1_7 u_0_8 (= x_0_8 x_1_7) u_1_8 (= x_1_8 x_0_7) true (and (and (= u_2_8 u_2_7) (= x_2_8 x_2_7))))))
(assert (=> (= t_7 6) (and u_2_7 u_0_8 (= x_0_8 x_2_7) u_2_8 (= x_2_8 x_0_7) (and (and (= u_1_8 u_1_7) (= x_1_8 x_1_7))) true)))
(assert (=> (= t_8 0) (and (<= 0 a_8) (< a_8 115792089237316195423570985008687907853269984665640564039457584007913129639936) (not u_2_8) u_0_9 (= x_0_9 a_8) (and (and (= u_1_9 u_0_8) (= x_1_9 x_0_8)) (and (= u_2_9 u_1_8) (= x_2_9 x_1_8))))))
(assert (=> (= t_8 1) (and u_0_8 (not u_2_9) (and (and (= u_0_9 u_1_8) (= x_0_9 x_1_8)) (and (= u_1_9 u_2_8) (= x_1_9 x_2_8))))))
(assert (=> (= t_8 2) (and (and (= u_0_9 u_0_8) (= x_0_9 x_0_8)) (and (= u_1_9 u_1_8) (= x_1_9 x_1_8)) (and (= u_2_9 u_2_8) (= x_2_9 x_2_8)))))
(assert (=> (= t_8 3) (and (not u_2_8) u_0_8 u_0_9 (= x_0_9 x_0_8) (and (and (= u_1_9 u_0_8) (= x_1_9 x_0_8)) (and (= u_2_9 u_1_8) (= x_2_9 x_1_8))))))
(assert (=> (= t_8 4) (and (not u_2_8) u_1_8 u_0_9 (= x_0_9 x_1_8) (and (and (= u_1_9 u_0_8) (= x_1_9 x_0_8)) (and (= u_2_9 u_1_8) (= x_2_9 x_1_8))))))
(assert (=> (= t_8 5) (and u_1_8 u_0_9 (= x_0_9 x_1_8) u_1_9 (= x_1_9 x_0_8) true (and (and (= u_2_9 u_2_8) (= x_2_9 x_2_8))))))
(assert (=> (= t_8 6) (and u_2_8 u_0_9 (= x_0_9 x_2_8) u_2_9 (= x_2_9 x_0_8) (and (and (= u_1_9 u_1_8) (= x_1_9 x_1_8))) true)))
; Commutative constraints
(assert (not (= t_0 7)))
(assert (not (= t_1 7)))
(assert (not (= t_2 7)))
(assert (=> (= t_3 7) (and u_0_3 u_1_3 (or (and (= x_0_3 4) (= x_1_3 |s(3)|)) (and (= x_0_3 |s(3)|) (= x_1_3 4))) u_0_4 (= x_0_4 |s(2)|) (and (and (= u_1_4 u_2_3) (= x_1_4 x_2_3))) (not u_2_4))))
(assert (=> (= t_4 7) (and u_0_4 u_1_4 (or (and (= x_0_4 4) (= x_1_4 |s(3)|)) (and (= x_0_4 |s(3)|) (= x_1_4 4))) u_0_5 (= x_0_5 |s(2)|) (and (and (= u_1_5 u_2_4) (= x_1_5 x_2_4))) (not u_2_5))))
(assert (=> (= t_5 7) (and u_0_5 u_1_5 (or (and (= x_0_5 4) (= x_1_5 |s(3)|)) (and (= x_0_5 |s(3)|) (= x_1_5 4))) u_0_6 (= x_0_6 |s(2)|) (and (and (= u_1_6 u_2_5) (= x_1_6 x_2_5))) (not u_2_6))))
(assert (=> (= t_6 7) (and u_0_6 u_1_6 (or (and (= x_0_6 4) (= x_1_6 |s(3)|)) (and (= x_0_6 |s(3)|) (= x_1_6 4))) u_0_7 (= x_0_7 |s(2)|) (and (and (= u_1_7 u_2_6) (= x_1_7 x_2_6))) (not u_2_7))))
(assert (=> (= t_7 7) (and u_0_7 u_1_7 (or (and (= x_0_7 4) (= x_1_7 |s(3)|)) (and (= x_0_7 |s(3)|) (= x_1_7 4))) u_0_8 (= x_0_8 |s(2)|) (and (and (= u_1_8 u_2_7) (= x_1_8 x_2_7))) (not u_2_8))))
(assert (=> (= t_8 7) (and u_0_8 u_1_8 (or (and (= x_0_8 4) (= x_1_8 |s(3)|)) (and (= x_0_8 |s(3)|) (= x_1_8 4))) u_0_9 (= x_0_9 |s(2)|) (and (and (= u_1_9 u_2_8) (= x_1_9 x_2_8))) (not u_2_9))))
; Non-commutative constraints
(assert (=> (= t_0 10) (and (and true) u_0_1 (= x_0_1 |s(4)|) (and (and (= u_1_1 u_0_0) (= x_1_1 x_0_0)) (and (= u_2_1 u_1_0) (= x_2_1 x_1_0))) (and true) (and true (not u_2_0)))))
(assert (=> (= t_1 10) (and (and true) u_0_2 (= x_0_2 |s(4)|) (and (and (= u_1_2 u_0_1) (= x_1_2 x_0_1)) (and (= u_2_2 u_1_1) (= x_2_2 x_1_1))) (and true) (and true (not u_2_1)))))
(assert (=> (= t_2 10) (and (and true) u_0_3 (= x_0_3 |s(4)|) (and (and (= u_1_3 u_0_2) (= x_1_3 x_0_2)) (and (= u_2_3 u_1_2) (= x_2_3 x_1_2))) (and true) (and true (not u_2_2)))))
(assert (=> (= t_3 10) (and (and true) u_0_4 (= x_0_4 |s(4)|) (and (and (= u_1_4 u_0_3) (= x_1_4 x_0_3)) (and (= u_2_4 u_1_3) (= x_2_4 x_1_3))) (and true) (and true (not u_2_3)))))
(assert (=> (= t_4 10) (and (and true) u_0_5 (= x_0_5 |s(4)|) (and (and (= u_1_5 u_0_4) (= x_1_5 x_0_4)) (and (= u_2_5 u_1_4) (= x_2_5 x_1_4))) (and true) (and true (not u_2_4)))))
(assert (=> (= t_5 10) (and (and true) u_0_6 (= x_0_6 |s(4)|) (and (and (= u_1_6 u_0_5) (= x_1_6 x_0_5)) (and (= u_2_6 u_1_5) (= x_2_6 x_1_5))) (and true) (and true (not u_2_5)))))
(assert (=> (= t_6 10) (and (and true) u_0_7 (= x_0_7 |s(4)|) (and (and (= u_1_7 u_0_6) (= x_1_7 x_0_6)) (and (= u_2_7 u_1_6) (= x_2_7 x_1_6))) (and true) (and true (not u_2_6)))))
(assert (=> (= t_7 10) (and (and true) u_0_8 (= x_0_8 |s(4)|) (and (and (= u_1_8 u_0_7) (= x_1_8 x_0_7)) (and (= u_2_8 u_1_7) (= x_2_8 x_1_7))) (and true) (and true (not u_2_7)))))
(assert (not (= t_8 10)))
(assert (not (= t_0 8)))
(assert (=> (= t_1 8) (and (and true (and u_0_1 (= x_0_1 64))) u_0_2 (= x_0_2 |s(3)|) (and (and (= u_1_2 u_1_1) (= x_1_2 x_1_1)) (and (= u_2_2 u_2_1) (= x_2_2 x_2_1))) (and true) (and true))))
(assert (=> (= t_2 8) (and (and true (and u_0_2 (= x_0_2 64))) u_0_3 (= x_0_3 |s(3)|) (and (and (= u_1_3 u_1_2) (= x_1_3 x_1_2)) (and (= u_2_3 u_2_2) (= x_2_3 x_2_2))) (and true) (and true))))
(assert (=> (= t_3 8) (and (and true (and u_0_3 (= x_0_3 64))) u_0_4 (= x_0_4 |s(3)|) (and (and (= u_1_4 u_1_3) (= x_1_4 x_1_3)) (and (= u_2_4 u_2_3) (= x_2_4 x_2_3))) (and true) (and true))))
(assert (=> (= t_4 8) (and (and true (and u_0_4 (= x_0_4 64))) u_0_5 (= x_0_5 |s(3)|) (and (and (= u_1_5 u_1_4) (= x_1_5 x_1_4)) (and (= u_2_5 u_2_4) (= x_2_5 x_2_4))) (and true) (and true))))
(assert (=> (= t_5 8) (and (and true (and u_0_5 (= x_0_5 64))) u_0_6 (= x_0_6 |s(3)|) (and (and (= u_1_6 u_1_5) (= x_1_6 x_1_5)) (and (= u_2_6 u_2_5) (= x_2_6 x_2_5))) (and true) (and true))))
(assert (=> (= t_6 8) (and (and true (and u_0_6 (= x_0_6 64))) u_0_7 (= x_0_7 |s(3)|) (and (and (= u_1_7 u_1_6) (= x_1_7 x_1_6)) (and (= u_2_7 u_2_6) (= x_2_7 x_2_6))) (and true) (and true))))
(assert (=> (= t_7 8) (and (and true (and u_0_7 (= x_0_7 64))) u_0_8 (= x_0_8 |s(3)|) (and (and (= u_1_8 u_1_7) (= x_1_8 x_1_7)) (and (= u_2_8 u_2_7) (= x_2_8 x_2_7))) (and true) (and true))))
(assert (not (= t_8 8)))
; Store constraints
(assert (not (= t_0 9)))
(assert (not (= t_1 9)))
(assert (not (= t_2 9)))
(assert (=> (= t_3 9) (and u_0_3 u_1_3 (and (= x_0_3 |s(3)|) (= x_1_3 3963877391197344453575983046348115674221700746820753546331534351508065746944)) (and (and (= u_0_4 u_2_3) (= x_0_4 x_2_3))) (not u_2_4) (not u_1_4))))
(assert (=> (= t_4 9) (and u_0_4 u_1_4 (and (= x_0_4 |s(3)|) (= x_1_4 3963877391197344453575983046348115674221700746820753546331534351508065746944)) (and (and (= u_0_5 u_2_4) (= x_0_5 x_2_4))) (not u_2_5) (not u_1_5))))
(assert (=> (= t_5 9) (and u_0_5 u_1_5 (and (= x_0_5 |s(3)|) (= x_1_5 3963877391197344453575983046348115674221700746820753546331534351508065746944)) (and (and (= u_0_6 u_2_5) (= x_0_6 x_2_5))) (not u_2_6) (not u_1_6))))
(assert (=> (= t_6 9) (and u_0_6 u_1_6 (and (= x_0_6 |s(3)|) (= x_1_6 3963877391197344453575983046348115674221700746820753546331534351508065746944)) (and (and (= u_0_7 u_2_6) (= x_0_7 x_2_6))) (not u_2_7) (not u_1_7))))
(assert (=> (= t_7 9) (and u_0_7 u_1_7 (and (= x_0_7 |s(3)|) (= x_1_7 3963877391197344453575983046348115674221700746820753546331534351508065746944)) (and (and (= u_0_8 u_2_7) (= x_0_8 x_2_7))) (not u_2_8) (not u_1_8))))
(assert (=> (= t_8 9) (and u_0_8 u_1_8 (and (= x_0_8 |s(3)|) (= x_1_8 3963877391197344453575983046348115674221700746820753546331534351508065746944)) (and (and (= u_0_9 u_2_8) (= x_0_9 x_2_8))) (not u_2_9) (not u_1_9))))
; Initial stack constraints
(assert (not u_0_0))
(assert (not u_1_0))
(assert (not u_2_0))
; Final stack constraints
(assert (and u_0_9 (= x_0_9 |s(2)|)))
(assert (and u_1_9 (= x_1_9 |s(4)|)))
(assert (not u_2_9))
; All values are eventually pushed
(assert (or (and (= t_0 0) (= a_0 3963877391197344453575983046348115674221700746820753546331534351508065746944)) (and (= t_1 0) (= a_1 3963877391197344453575983046348115674221700746820753546331534351508065746944)) (and (= t_2 0) (= a_2 3963877391197344453575983046348115674221700746820753546331534351508065746944)) (and (= t_3 0) (= a_3 3963877391197344453575983046348115674221700746820753546331534351508065746944)) (and (= t_4 0) (= a_4 3963877391197344453575983046348115674221700746820753546331534351508065746944)) (and (= t_5 0) (= a_5 3963877391197344453575983046348115674221700746820753546331534351508065746944)) (and (= t_6 0) (= a_6 3963877391197344453575983046348115674221700746820753546331534351508065746944)) (and (= t_7 0) (= a_7 3963877391197344453575983046348115674221700746820753546331534351508065746944)) (and (= t_8 0) (= a_8 3963877391197344453575983046348115674221700746820753546331534351508065746944))))
(assert (or (and (= t_0 0) (= a_0 64)) (and (= t_1 0) (= a_1 64)) (and (= t_2 0) (= a_2 64)) (and (= t_3 0) (= a_3 64)) (and (= t_4 0) (= a_4 64)) (and (= t_5 0) (= a_5 64)) (and (= t_6 0) (= a_6 64)) (and (= t_7 0) (= a_7 64)) (and (= t_8 0) (= a_8 64))))
(assert (or (and (= t_0 0) (= a_0 4)) (and (= t_1 0) (= a_1 4)) (and (= t_2 0) (= a_2 4)) (and (= t_3 0) (= a_3 4)) (and (= t_4 0) (= a_4 4)) (and (= t_5 0) (= a_5 4)) (and (= t_6 0) (= a_6 4)) (and (= t_7 0) (= a_7 4)) (and (= t_8 0) (= a_8 4))))
; If we push or dup a value, the following instruction cannot be a pop
(assert (=> (= t_1 1) (or (= t_0 1) (= t_0 5) (= t_0 6) (= t_0 9))))
(assert (=> (= t_2 1) (or (= t_1 1) (= t_1 5) (= t_1 6) (= t_1 9))))
(assert (=> (= t_3 1) (or (= t_2 1) (= t_2 5) (= t_2 6) (= t_2 9))))
(assert (=> (= t_4 1) (or (= t_3 1) (= t_3 5) (= t_3 6) (= t_3 9))))
(assert (=> (= t_5 1) (or (= t_4 1) (= t_4 5) (= t_4 6) (= t_4 9))))
(assert (=> (= t_6 1) (or (= t_5 1) (= t_5 5) (= t_5 6) (= t_5 9))))
(assert (=> (= t_7 1) (or (= t_6 1) (= t_6 5) (= t_6 6) (= t_6 9))))
(assert (=> (= t_8 1) (or (= t_7 1) (= t_7 5) (= t_7 6) (= t_7 9))))
; All uninterpreted functions in the final stack are eventually used
(assert (or (= t_0 10) (= t_1 10) (= t_2 10) (= t_3 10) (= t_4 10) (= t_5 10) (= t_6 10) (= t_7 10)))
; Constraints using l variables
(assert (and (<= 3 l_9) (< l_9 9)))
(assert (= (= t_3 9) (= l_9 3)))
(assert (= (= t_4 9) (= l_9 4)))
(assert (= (= t_5 9) (= l_9 5)))
(assert (= (= t_6 9) (= l_9 6)))
(assert (= (= t_7 9) (= l_9 7)))
(assert (= (= t_8 9) (= l_9 8)))
(assert (and (<= 1 l_8) (< l_8 8)))
(assert (= (= t_1 8) (= l_8 1)))
(assert (= (= t_2 8) (= l_8 2)))
(assert (= (= t_3 8) (= l_8 3)))
(assert (= (= t_4 8) (= l_8 4)))
(assert (= (= t_5 8) (= l_8 5)))
(assert (= (= t_6 8) (= l_8 6)))
(assert (= (= t_7 8) (= l_8 7)))
(assert (and (<= 3 l_7) (< l_7 9)))
(assert (= (= t_3 7) (= l_7 3)))
(assert (= (= t_4 7) (= l_7 4)))
(assert (= (= t_5 7) (= l_7 5)))
(assert (= (= t_6 7) (= l_7 6)))
(assert (= (= t_7 7) (= l_7 7)))
(assert (= (= t_8 7) (= l_7 8)))
(assert (< l_8 l_9))
(assert (< l_8 l_7))
; Soft constraints for optimizing the number of instructions
(assert-soft (= t_0 2) :weight 1 :id gas)
(assert-soft (= t_1 2) :weight 1 :id gas)
(assert-soft (= t_2 2) :weight 1 :id gas)
(assert-soft (= t_3 2) :weight 1 :id gas)
(assert-soft (= t_4 2) :weight 1 :id gas)
(assert-soft (= t_5 2) :weight 1 :id gas)
(assert-soft (= t_6 2) :weight 1 :id gas)
(assert-soft (= t_7 2) :weight 1 :id gas)
(assert-soft (= t_8 2) :weight 1 :id gas)
(minimize gas)
(check-sat)
(get-objectives)
(load-objective-model -1)
(get-value (t_0))
(get-value (a_0))
(get-value (t_1))
(get-value (a_1))
(get-value (t_2))
(get-value (a_2))
(get-value (t_3))
(get-value (a_3))
(get-value (t_4))
(get-value (a_4))
(get-value (t_5))
(get-value (a_5))
(get-value (t_6))
(get-value (a_6))
(get-value (t_7))
(get-value (a_7))
(get-value (t_8))
(get-value (a_8))
; Stack: {'PUSH': 0, 'POP': 1, 'NOP': 2, 'DUP1': 3, 'DUP2': 4, 'SWAP1': 5, 'SWAP2': 6}
; Comm: {'ADD_0': 7}
; Non-Comm: {'MLOAD_0': 8, 'PUSHTAG_0': 10}
; Mem: {'MSTORE_0': 9}
; L dict: {'MSTORE_0': 9, 'MLOAD_0': 8, 'ADD_0': 7}
